c Random generated cnf formula, satisfiable: true
p cnf 10 50
-3 6 1 0
-2 7 8 0
4 -8 6 0
-2 10 8 0
7 10 8 0
-2 -3 -1 0
-8 -10 7 0
3 6 -5 0
10 -9 -1 0
8 -6 -4 0
8 2 1 0
-9 -4 10 0
4 3 -9 0
-4 -3 -9 0
-7 9 -3 0
-7 1 -2 0
3 -9 -1 0
-2 5 -7 0
10 -3 4 0
8 -3 1 0
10 -2 -9 0
-10 -7 6 0
-2 9 5 0
-3 1 -2 0
10 6 -1 0
1 7 3 0
9 -10 -3 0
7 -9 -3 0
-5 7 10 0
1 -3 10 0
9 7 3 0
-6 1 -7 0
-7 -5 6 0
2 1 -4 0
2 -7 -3 0
10 -6 -3 0
-9 6 -1 0
-9 -6 -7 0
8 -3 4 0
-10 1 2 0
8 -1 7 0
9 -10 -4 0
6 7 -4 0
-5 -6 9 0
2 -9 -5 0
-5 1 -6 0
10 4 6 0
-8 9 -10 0
4 9 -8 0
3 7 -10 0
